p cnf 11 39
c t mc
-11 2 -3 1 -7 8 0
6 5 9 0
-1 11 -10 7 0
10 4 -2 0
-8 -4 -9 -5 3 0
-6 11 -9 2 -3 0
-11 -5 7 0
1 9 -5 0
1 4 2 8 0
5 3 6 8 7 0
-4 -6 -2 8 -5 9 0
-2 1 10 0
8 -10 6 0
6 -3 -11 -1 -4 0
3 -4 2 6 -10 5 0
4 -5 -3 -11 0
-10 -5 1 0
-10 11 2 -6 9 0
-10 6 3 8 0
-7 -1 -4 2 -8 0
-3 -10 -2 -6 0
10 6 -5 7 1 0
1 -10 -11 -5 -8 0
9 -4 3 0
-5 -4 -7 0
-8 10 11 0
6 4 -2 0
-7 9 6 4 -3 0
5 10 -1 0
5 10 -6 -3 -9 0
6 -9 -2 0
-7 3 0
-10 6 -7 -11 0
-3 -11 -5 0
5 6 9 0
-3 1 11 0
7 2 6 -3 0
3 7 10 0
3 -5 0
